NAME : instances/diverse-tsp/instance-1.tsp
COMMENT : No Comment
TYPE : TSP
DIMENSION: 48
EDGE_WEIGHT_TYPE : EUC_2D
NODE_COORD_SECTION
1 1002 136 
2 1980 1291 
3 1553 7 
4 1975 680 
5 1850 553 
6 1434 1448 
7 1533 65 
8 1240 1048 
9 236 145 
10 470 710 
11 1684 1764 
12 1831 1250 
13 1240 713 
14 382 1100 
15 1953 438 
16 1257 1422 
17 1846 591 
18 1364 1758 
19 1905 1620 
20 1190 575 
21 777 1258 
22 253 1974 
23 385 1843 
24 1466 452 
25 42 449 
26 970 157 
27 1454 1602 
28 727 56 
29 965 477 
30 293 1288 
31 1824 1367 
32 593 467 
33 420 1811 
34 1137 1127 
35 1643 1423 
36 1393 1230 
37 1041 900 
38 1140 570 
39 1134 944 
40 1555 1168 
41 1801 1384 
42 441 1433 
43 750 1350 
44 1953 242 
45 1102 1085 
46 1166 1012 
47 1528 1024 
48 660 1243 
EOF
